p cnf 9 58 
c Factors encoded in variables 1-4 and 5-8
c Target number: 99
c Factors: 11 x 9
3 -2 -10 -10 0
-4 -3 -2 -6 10 0
4 2 8 6 10 -10 0
-3 -8 10 0
4 8 0
-4 -3 -7 -6 10 -10 0
2 7 -10 10 0
-3 -7 -10 0
3 6 -10 10 0
4 3 2 0
4 -2 8 -6 -10 -10 0
4 7 -6 -10 0
4 -2 -8 -6 10 -10 0
10 -10 10 0
3 7 -10 0
-3 2 7 0
3 -7 10 0
3 -6 -10 10 0
-3 -10 0
6 -10 -10 10 0
-2 -8 -7 -6 -10 0
-4 -7 6 10 0
8 7 6 -10 0
-4 -3 -2 8 -10 0
4 3 8 6 -10 0
-6 -10 0
-4 -3 -2 10 10 0
-3 7 10 0
5 0
4 -10 0
8 -6 10 0
3 -2 -6 10 0
3 2 -10 -10 0
2 6 0
4 -8 -7 -6 -10 0
8 -10 0
-2 -8 10 -10 10 0
4 2 7 -10 -10 0
6 7 8 0
3 8 6 0
8 7 0
4 -2 -7 6 -10 0
3 8 -6 10 -10 0
-3 -2 7 6 10 0
7 -6 -10 10 0
4 -2 7 10 -10 0
1 0
4 8 7 0
-10 -10 0
4 -8 7 6 10 0
-4 -3 -2 -8 -10 0
4 3 2 -10 0
-2 -6 -10 10 0
-4 7 -6 -10 10 0
3 -2 -8 -10 10 0
4 3 0
2 3 4 0
-7 -6 10 -10 0
